p cnf 868 2754
a 2 3 4 5 6 7 8 9 10 11 15 20 22 24 25 26 29 31 33 34 36 38 40 41 43 45 47 49 51 53 55 58 59 66 68 72 76 78 80 84 91 96 101 107 108 112 115 116 125 130 133 134 141 142 146 150 151 154 158 162 164 166 168 170 171 175 179 181 185 189 194 196 0
e 1 12 13 14 16 17 18 19 21 23 27 28 30 32 35 37 39 42 44 46 48 50 52 54 56 57 60 61 62 63 64 65 67 69 70 71 73 74 75 77 79 81 82 83 85 86 87 88 89 90 92 93 94 95 97 98 99 100 102 103 104 105 106 109 110 111 113 114 117 118 119 120 121 122 123 124 126 127 128 129 131 132 135 136 137 138 139 140 143 144 145 147 148 149 152 153 155 156 157 159 160 161 163 165 167 169 172 173 174 176 177 178 180 182 183 184 186 187 188 190 191 192 193 195 197 198 199 200 201 202 203 204 205 206 207 208 209 210 211 212 213 214 215 216 217 218 219 220 221 222 223 224 225 226 227 228 229 230 231 232 233 234 235 236 237 238 239 240 241 242 243 244 245 246 247 248 249 250 251 252 253 254 255 256 257 258 259 260 261 262 263 264 265 266 267 268 269 270 271 272 273 274 275 276 277 278 279 280 281 282 283 284 285 286 287 288 289 290 291 292 293 294 295 296 297 298 299 300 301 302 303 304 305 306 307 308 309 310 311 312 313 314 315 316 317 318 319 320 321 322 323 324 325 326 327 328 329 330 331 332 333 334 335 336 337 338 339 340 341 342 343 344 345 346 347 348 349 350 351 352 353 354 355 356 357 358 359 360 361 362 363 364 365 366 367 368 369 370 371 372 373 374 375 376 377 378 379 380 381 382 383 384 385 386 387 388 389 390 391 392 393 394 395 396 397 398 399 400 401 402 403 404 405 406 407 408 409 410 411 412 413 414 415 416 417 418 419 420 421 422 423 424 425 426 427 428 429 430 431 432 433 434 435 436 437 438 439 440 441 442 443 444 445 446 447 448 449 450 451 452 453 454 455 456 457 458 459 460 461 462 463 464 465 466 467 468 469 470 471 472 473 474 475 476 477 478 479 480 481 482 483 484 485 486 487 488 489 490 491 492 493 494 495 496 497 498 499 500 501 502 503 504 505 506 507 508 509 510 511 512 513 514 515 516 517 518 519 520 521 522 523 524 525 526 527 528 529 530 531 532 533 534 535 536 537 538 539 540 541 542 543 544 545 546 547 548 549 550 551 552 553 554 555 556 557 558 559 560 561 562 563 564 565 566 567 568 569 570 571 572 573 574 575 576 577 578 579 580 581 582 583 584 585 586 587 588 589 590 591 592 593 594 595 596 597 598 599 600 601 602 603 604 605 606 607 608 609 610 611 612 613 614 615 616 617 618 619 620 621 622 623 624 625 626 627 628 629 630 631 632 633 634 635 636 637 638 639 640 641 642 643 644 645 646 647 648 649 650 651 652 653 654 655 656 657 658 659 660 661 662 663 664 665 666 667 668 669 670 671 672 673 674 675 676 677 678 679 680 681 682 683 684 685 686 687 688 689 690 691 692 693 694 695 696 697 698 699 700 701 702 703 704 705 706 707 708 709 710 711 712 713 714 715 716 717 718 719 720 721 722 723 724 725 726 727 728 729 730 731 732 733 734 735 736 737 738 739 740 741 742 743 744 745 746 747 748 749 750 751 752 753 754 755 756 757 758 759 760 761 762 763 764 765 766 767 768 769 770 771 772 773 774 775 776 777 778 779 780 781 782 783 784 785 786 787 788 789 790 791 792 793 794 795 796 797 798 799 800 801 802 803 804 805 806 807 808 809 810 811 812 813 814 815 816 817 818 819 820 821 822 823 824 825 826 827 828 829 830 831 832 833 834 835 836 837 838 839 840 841 842 843 844 845 846 847 848 849 850 851 852 853 854 855 856 857 858 859 860 861 862 863 864 865 866 867 868 0
1 0
10 -12 0
11 -12 0
-10 -11 12 0
10 -13 0
-11 -13 0
-10 11 13 0
10 14 0
-12 14 0
-13 14 0
-10 12 13 -14 0
-15 16 0
15 16 0
9 -17 0
14 -17 0
16 -17 0
-9 -14 -16 17 0
-9 -18 0
14 -18 0
9 -14 18 0
-17 19 0
-18 19 0
17 18 -19 0
-20 21 0
20 21 0
-22 23 0
22 23 0
25 -27 0
-26 -27 0
-25 26 27 0
25 28 0
-27 28 0
-25 27 -28 0
-29 30 0
29 30 0
30 -32 0
31 -32 0
-30 -31 32 0
-34 35 0
34 35 0
35 -37 0
-36 -37 0
-35 36 37 0
35 -39 0
36 -39 0
38 -39 0
-35 -36 -38 39 0
35 -42 0
36 -42 0
-38 -42 0
40 -42 0
41 -42 0
-35 -36 38 -40 -41 42 0
35 -44 0
36 -44 0
-38 -44 0
40 -44 0
-41 -44 0
-43 -44 0
-35 -36 38 -40 41 43 44 0
35 -46 0
36 -46 0
-38 -46 0
-40 -46 0
-45 -46 0
-35 -36 38 40 45 46 0
35 -48 0
36 -48 0
-38 -48 0
-40 -48 0
45 -48 0
47 -48 0
-35 -36 38 40 -45 -47 48 0
35 -50 0
36 -50 0
-38 -50 0
40 -50 0
-41 -50 0
43 -50 0
49 -50 0
-35 -36 38 -40 41 -43 -49 50 0
35 -52 0
36 -52 0
-38 -52 0
40 -52 0
-41 -52 0
43 -52 0
-49 -52 0
51 -52 0
-35 -36 38 -40 41 -43 49 -51 52 0
-53 54 0
53 54 0
35 -56 0
36 -56 0
-38 -56 0
-40 -56 0
45 -56 0
-47 -56 0
54 -56 0
55 -56 0
-35 -36 38 40 -45 47 -54 -55 56 0
35 -57 0
36 -57 0
-38 -57 0
-40 -57 0
45 -57 0
-47 -57 0
54 -57 0
-55 -57 0
-35 -36 38 40 -45 47 -54 55 57 0
58 -60 0
59 -60 0
-58 -59 60 0
58 -61 0
-59 -61 0
-58 59 61 0
58 62 0
-60 62 0
-61 62 0
-58 60 61 -62 0
35 -63 0
36 -63 0
-38 -63 0
40 -63 0
-41 -63 0
43 -63 0
-49 -63 0
-51 -63 0
62 -63 0
-35 -36 38 -40 41 -43 49 51 -62 63 0
-37 64 0
-39 64 0
-42 64 0
-44 64 0
-46 64 0
-48 64 0
-50 64 0
-52 64 0
-56 64 0
-57 64 0
-63 64 0
37 39 42 44 46 48 50 52 56 57 63 -64 0
30 -65 0
-31 -65 0
-33 -65 0
64 -65 0
-30 31 33 -64 65 0
30 -67 0
-31 -67 0
33 -67 0
-66 -67 0
-30 31 -33 66 67 0
30 -69 0
-31 -69 0
33 -69 0
66 -69 0
-68 -69 0
-30 31 -33 -66 68 69 0
30 -70 0
-31 -70 0
33 -70 0
66 -70 0
68 -70 0
-30 31 -33 -66 -68 70 0
-65 71 0
-67 71 0
-69 71 0
-70 71 0
65 67 69 70 -71 0
71 -73 0
72 -73 0
-71 -72 73 0
71 -74 0
-72 -74 0
-71 72 74 0
-32 75 0
-73 75 0
-74 75 0
32 73 74 -75 0
-76 77 0
76 77 0
24 -79 0
28 -79 0
75 -79 0
77 -79 0
78 -79 0
-24 -28 -75 -77 -78 79 0
-80 81 0
80 81 0
24 -82 0
28 -82 0
75 -82 0
77 -82 0
-78 -82 0
81 -82 0
-24 -28 -75 -77 78 -81 82 0
-79 83 0
-82 83 0
79 82 -83 0
83 -85 0
84 -85 0
-83 -84 85 0
83 -86 0
-84 -86 0
-83 84 86 0
24 87 0
-85 87 0
-86 87 0
-24 85 86 -87 0
8 -88 0
19 -88 0
21 -88 0
23 -88 0
87 -88 0
-8 -19 -21 -23 -87 88 0
-8 -89 0
19 -89 0
21 -89 0
23 -89 0
8 -19 -21 -23 89 0
-88 90 0
-89 90 0
88 89 -90 0
91 92 0
-91 92 0
7 -93 0
90 -93 0
92 -93 0
-7 -90 -92 93 0
-7 -94 0
90 -94 0
7 -90 94 0
-93 95 0
-94 95 0
93 94 -95 0
96 97 0
-96 97 0
6 -98 0
95 -98 0
97 -98 0
-6 -95 -97 98 0
-6 -99 0
95 -99 0
6 -95 99 0
-98 100 0
-99 100 0
98 99 -100 0
101 102 0
-101 102 0
5 -103 0
100 -103 0
102 -103 0
-5 -100 -102 103 0
-5 -104 0
100 -104 0
5 -100 104 0
-103 105 0
-104 105 0
103 104 -105 0
4 -106 0
105 -106 0
-4 -105 106 0
108 -109 0
100 -109 0
102 -109 0
-108 -100 -102 109 0
-108 -110 0
100 -110 0
108 -100 110 0
-109 111 0
-110 111 0
109 110 -111 0
112 113 0
-112 113 0
107 -114 0
111 -114 0
113 -114 0
-107 -111 -113 114 0
116 117 0
-116 117 0
115 -118 0
111 -118 0
117 -118 0
-115 -111 -117 118 0
-115 -119 0
111 -119 0
115 -111 119 0
-118 120 0
-119 120 0
118 119 -120 0
-107 -121 0
120 -121 0
107 -120 121 0
-114 122 0
-121 122 0
114 121 -122 0
-4 -123 0
122 -123 0
4 -122 123 0
-106 124 0
-123 124 0
106 123 -124 0
125 126 0
-125 126 0
3 -127 0
124 -127 0
126 -127 0
-3 -124 -126 127 0
-3 -128 0
124 -128 0
3 -124 128 0
-127 129 0
-128 129 0
127 128 -129 0
130 131 0
-130 131 0
2 -132 0
129 -132 0
131 -132 0
-2 -129 -131 132 0
134 135 0
-134 135 0
133 -136 0
129 -136 0
135 -136 0
-133 -129 -135 136 0
-133 -137 0
129 -137 0
133 -129 137 0
-136 138 0
-137 138 0
136 137 -138 0
-2 -139 0
138 -139 0
2 -138 139 0
-132 140 0
-139 140 0
132 139 -140 0
141 -143 0
142 -143 0
-141 -142 143 0
141 -144 0
-142 -144 0
-141 142 144 0
-143 145 0
-144 145 0
143 144 -145 0
145 -147 0
146 -147 0
-145 -146 147 0
145 -148 0
-146 -148 0
-145 146 148 0
-147 149 0
-148 149 0
147 148 -149 0
149 -152 0
-150 -152 0
151 -152 0
-149 150 -151 152 0
149 -153 0
-150 -153 0
-151 -153 0
-149 150 151 153 0
149 -155 0
150 -155 0
154 -155 0
-149 -150 -154 155 0
149 -156 0
150 -156 0
-154 -156 0
-149 -150 154 156 0
-152 157 0
-153 157 0
-155 157 0
-156 157 0
152 153 155 156 -157 0
157 -159 0
158 -159 0
-157 -158 159 0
157 -160 0
-158 -160 0
-157 158 160 0
-159 161 0
-160 161 0
159 160 -161 0
161 -163 0
162 -163 0
-161 -162 163 0
161 -165 0
-162 -165 0
164 -165 0
-161 162 -164 165 0
161 -167 0
-162 -167 0
-164 -167 0
166 -167 0
-161 162 164 -166 167 0
161 -169 0
-162 -169 0
-164 -169 0
-166 -169 0
168 -169 0
-161 162 164 166 -168 169 0
161 -172 0
-162 -172 0
-164 -172 0
-166 -172 0
-168 -172 0
170 -172 0
171 -172 0
-161 162 164 166 168 -170 -171 172 0
161 -173 0
-162 -173 0
-164 -173 0
-166 -173 0
-168 -173 0
170 -173 0
-171 -173 0
-161 162 164 166 168 -170 171 173 0
-172 174 0
-173 174 0
172 173 -174 0
174 -176 0
175 -176 0
-174 -175 176 0
174 -177 0
-175 -177 0
-174 175 177 0
-176 178 0
-177 178 0
176 177 -178 0
178 -180 0
179 -180 0
-178 -179 180 0
161 -182 0
-162 -182 0
-164 -182 0
-166 -182 0
-168 -182 0
-170 -182 0
181 -182 0
-161 162 164 166 168 170 -181 182 0
161 -183 0
-162 -183 0
-164 -183 0
-166 -183 0
-168 -183 0
-170 -183 0
-181 -183 0
-161 162 164 166 168 170 181 183 0
-182 184 0
-183 184 0
182 183 -184 0
184 -186 0
185 -186 0
-184 -185 186 0
184 -187 0
-185 -187 0
-184 185 187 0
-186 188 0
-187 188 0
186 187 -188 0
188 -190 0
189 -190 0
-188 -189 190 0
178 -191 0
-179 -191 0
-178 179 191 0
188 -192 0
-189 -192 0
-188 189 192 0
-180 193 0
-190 193 0
-191 193 0
-192 193 0
180 190 191 192 -193 0
193 -195 0
-194 -195 0
-193 194 195 0
193 -197 0
194 -197 0
196 -197 0
-193 -194 -196 197 0
193 -198 0
194 -198 0
-196 -198 0
-193 -194 196 198 0
141 199 0
-163 199 0
-165 199 0
-167 199 0
-169 199 0
-195 199 0
-197 199 0
-198 199 0
-141 163 165 167 169 195 197 198 -199 0
140 -200 0
199 -200 0
-140 -199 200 0
-15 201 0
15 201 0
9 -202 0
201 -202 0
-9 -201 202 0
-202 203 0
9 203 0
202 -9 -203 0
203 -204 0
-24 -204 0
-203 24 204 0
203 -205 0
30 -205 0
31 -205 0
-203 -30 -31 205 0
203 -206 0
30 -206 0
-31 -206 0
33 -206 0
66 -206 0
-68 -206 0
-203 -30 31 -33 -66 68 206 0
203 -207 0
30 -207 0
-31 -207 0
33 -207 0
66 -207 0
68 -207 0
-203 -30 31 -33 -66 -68 207 0
203 -208 0
30 -208 0
-31 -208 0
33 -208 0
-66 -208 0
-203 -30 31 -33 66 208 0
203 -209 0
34 -209 0
-203 -34 209 0
203 -210 0
-34 -210 0
-203 34 210 0
-209 211 0
-210 211 0
209 210 -211 0
-37 212 0
-39 212 0
-42 212 0
-44 212 0
-46 212 0
-48 212 0
-50 212 0
-52 212 0
37 39 42 44 46 48 50 52 -212 0
211 -213 0
212 -213 0
-211 -212 213 0
211 -214 0
35 -214 0
36 -214 0
-38 -214 0
40 -214 0
-41 -214 0
43 -214 0
-49 -214 0
-51 -214 0
62 -214 0
-211 -35 -36 38 -40 41 -43 49 51 -62 214 0
-56 215 0
-57 215 0
56 57 -215 0
211 -216 0
215 -216 0
-211 -215 216 0
-213 217 0
-214 217 0
-216 217 0
213 214 216 -217 0
217 -218 0
30 -218 0
-31 -218 0
-33 -218 0
64 -218 0
-217 -30 31 33 -64 218 0
-206 219 0
-207 219 0
-208 219 0
-218 219 0
206 207 208 218 -219 0
219 -220 0
71 -220 0
72 -220 0
-219 -71 -72 220 0
219 -221 0
71 -221 0
-72 -221 0
-219 -71 72 221 0
-205 222 0
-220 222 0
-221 222 0
205 220 221 -222 0
222 -223 0
24 -223 0
28 -223 0
75 -223 0
77 -223 0
78 -223 0
-222 -24 -28 -75 -77 -78 223 0
222 -224 0
24 -224 0
28 -224 0
75 -224 0
77 -224 0
-78 -224 0
81 -224 0
-222 -24 -28 -75 -77 78 -81 224 0
-223 225 0
-224 225 0
223 224 -225 0
-85 226 0
-86 226 0
85 86 -226 0
225 -227 0
226 -227 0
-225 -226 227 0
-204 228 0
-227 228 0
204 227 -228 0
8 -229 0
228 -229 0
-8 -228 229 0
-8 -230 0
203 -230 0
8 -203 230 0
-229 231 0
-230 231 0
229 230 -231 0
231 -232 0
-91 -232 0
-231 91 232 0
231 -233 0
91 -233 0
-231 -91 233 0
-232 234 0
-233 234 0
232 233 -234 0
7 -235 0
234 -235 0
-7 -234 235 0
-7 -236 0
231 -236 0
7 -231 236 0
-235 237 0
-236 237 0
235 236 -237 0
237 -238 0
-96 -238 0
-237 96 238 0
237 -239 0
96 -239 0
-237 -96 239 0
-238 240 0
-239 240 0
238 239 -240 0
6 -241 0
240 -241 0
-6 -240 241 0
-6 -242 0
237 -242 0
6 -237 242 0
-241 243 0
-242 243 0
241 242 -243 0
243 -244 0
-101 -244 0
-243 101 244 0
243 -245 0
101 -245 0
-243 -101 245 0
-244 246 0
-245 246 0
244 245 -246 0
5 -247 0
246 -247 0
-5 -246 247 0
-5 -248 0
243 -248 0
5 -243 248 0
-247 249 0
-248 249 0
247 248 -249 0
4 -250 0
249 -250 0
-4 -249 250 0
108 -251 0
246 -251 0
-108 -246 251 0
-108 -252 0
243 -252 0
108 -243 252 0
-251 253 0
-252 253 0
251 252 -253 0
253 -254 0
-112 -254 0
-253 112 254 0
253 -255 0
112 -255 0
-253 -112 255 0
-254 256 0
-255 256 0
254 255 -256 0
107 -257 0
256 -257 0
-107 -256 257 0
253 -258 0
-116 -258 0
-253 116 258 0
253 -259 0
116 -259 0
-253 -116 259 0
-258 260 0
-259 260 0
258 259 -260 0
115 -261 0
260 -261 0
-115 -260 261 0
-115 -262 0
253 -262 0
115 -253 262 0
-261 263 0
-262 263 0
261 262 -263 0
-107 -264 0
263 -264 0
107 -263 264 0
-257 265 0
-264 265 0
257 264 -265 0
-4 -266 0
265 -266 0
4 -265 266 0
-250 267 0
-266 267 0
250 266 -267 0
267 -268 0
-125 -268 0
-267 125 268 0
267 -269 0
125 -269 0
-267 -125 269 0
-268 270 0
-269 270 0
268 269 -270 0
3 -271 0
270 -271 0
-3 -270 271 0
-3 -272 0
267 -272 0
3 -267 272 0
-271 273 0
-272 273 0
271 272 -273 0
273 -274 0
-130 -274 0
-273 130 274 0
273 -275 0
130 -275 0
-273 -130 275 0
-274 276 0
-275 276 0
274 275 -276 0
2 -277 0
276 -277 0
-2 -276 277 0
273 -278 0
-134 -278 0
-273 134 278 0
273 -279 0
134 -279 0
-273 -134 279 0
-278 280 0
-279 280 0
278 279 -280 0
133 -281 0
280 -281 0
-133 -280 281 0
-133 -282 0
273 -282 0
133 -273 282 0
-281 283 0
-282 283 0
281 282 -283 0
-2 -284 0
283 -284 0
2 -283 284 0
-277 285 0
-284 285 0
277 284 -285 0
285 -286 0
-141 -286 0
-285 141 286 0
285 -287 0
141 -287 0
142 -287 0
-285 -141 -142 287 0
285 -288 0
141 -288 0
-142 -288 0
-285 -141 142 288 0
-287 289 0
-288 289 0
287 288 -289 0
289 -290 0
145 -290 0
146 -290 0
-289 -145 -146 290 0
289 -291 0
145 -291 0
-146 -291 0
-289 -145 146 291 0
-290 292 0
-291 292 0
290 291 -292 0
292 -293 0
157 -293 0
158 -293 0
-292 -157 -158 293 0
292 -294 0
157 -294 0
-158 -294 0
-292 -157 158 294 0
-293 295 0
-294 295 0
293 294 -295 0
-163 296 0
-165 296 0
-167 296 0
-169 296 0
163 165 167 169 -296 0
295 -297 0
296 -297 0
-295 -296 297 0
295 -298 0
161 -298 0
-162 -298 0
-164 -298 0
-166 -298 0
-168 -298 0
-170 -298 0
181 -298 0
-295 -161 162 164 166 168 170 -181 298 0
295 -299 0
161 -299 0
-162 -299 0
-164 -299 0
-166 -299 0
-168 -299 0
-170 -299 0
-181 -299 0
-295 -161 162 164 166 168 170 181 299 0
-298 300 0
-299 300 0
298 299 -300 0
300 -301 0
184 -301 0
185 -301 0
-300 -184 -185 301 0
300 -302 0
184 -302 0
-185 -302 0
-300 -184 185 302 0
-301 303 0
-302 303 0
301 302 -303 0
303 -304 0
188 -304 0
189 -304 0
-303 -188 -189 304 0
303 -305 0
188 -305 0
-189 -305 0
-303 -188 189 305 0
295 -306 0
161 -306 0
-162 -306 0
-164 -306 0
-166 -306 0
-168 -306 0
170 -306 0
171 -306 0
-295 -161 162 164 166 168 -170 -171 306 0
295 -307 0
161 -307 0
-162 -307 0
-164 -307 0
-166 -307 0
-168 -307 0
170 -307 0
-171 -307 0
-295 -161 162 164 166 168 -170 171 307 0
-306 308 0
-307 308 0
306 307 -308 0
308 -309 0
174 -309 0
175 -309 0
-308 -174 -175 309 0
308 -310 0
174 -310 0
-175 -310 0
-308 -174 175 310 0
-309 311 0
-310 311 0
309 310 -311 0
311 -312 0
178 -312 0
179 -312 0
-311 -178 -179 312 0
311 -313 0
178 -313 0
-179 -313 0
-311 -178 179 313 0
-304 314 0
-305 314 0
-312 314 0
-313 314 0
304 305 312 313 -314 0
-197 315 0
-198 315 0
197 198 -315 0
-195 316 0
-315 316 0
195 315 -316 0
314 -317 0
316 -317 0
-314 -316 317 0
-286 318 0
-297 318 0
-317 318 0
286 297 317 -318 0
-15 319 0
15 319 0
9 -320 0
319 -320 0
-9 -319 320 0
-320 321 0
9 321 0
320 -9 -321 0
321 -322 0
-24 -322 0
-321 24 322 0
321 -323 0
30 -323 0
31 -323 0
-321 -30 -31 323 0
321 -324 0
30 -324 0
-31 -324 0
33 -324 0
66 -324 0
-68 -324 0
-321 -30 31 -33 -66 68 324 0
321 -325 0
30 -325 0
-31 -325 0
33 -325 0
66 -325 0
68 -325 0
-321 -30 31 -33 -66 -68 325 0
321 -326 0
30 -326 0
-31 -326 0
33 -326 0
-66 -326 0
-321 -30 31 -33 66 326 0
321 -327 0
34 -327 0
-321 -34 327 0
321 -328 0
-34 -328 0
-321 34 328 0
-327 329 0
-328 329 0
327 328 -329 0
-37 330 0
-39 330 0
-42 330 0
-44 330 0
-46 330 0
-48 330 0
-50 330 0
-52 330 0
37 39 42 44 46 48 50 52 -330 0
329 -331 0
330 -331 0
-329 -330 331 0
329 -332 0
35 -332 0
36 -332 0
-38 -332 0
40 -332 0
-41 -332 0
43 -332 0
-49 -332 0
-51 -332 0
62 -332 0
-329 -35 -36 38 -40 41 -43 49 51 -62 332 0
329 -333 0
215 -333 0
-329 -215 333 0
-331 334 0
-332 334 0
-333 334 0
331 332 333 -334 0
334 -335 0
30 -335 0
-31 -335 0
-33 -335 0
64 -335 0
-334 -30 31 33 -64 335 0
-324 336 0
-325 336 0
-326 336 0
-335 336 0
324 325 326 335 -336 0
336 -337 0
71 -337 0
72 -337 0
-336 -71 -72 337 0
336 -338 0
71 -338 0
-72 -338 0
-336 -71 72 338 0
-323 339 0
-337 339 0
-338 339 0
323 337 338 -339 0
339 -340 0
24 -340 0
28 -340 0
75 -340 0
77 -340 0
78 -340 0
-339 -24 -28 -75 -77 -78 340 0
339 -341 0
24 -341 0
28 -341 0
75 -341 0
77 -341 0
-78 -341 0
81 -341 0
-339 -24 -28 -75 -77 78 -81 341 0
-340 342 0
-341 342 0
340 341 -342 0
342 -343 0
226 -343 0
-342 -226 343 0
-322 344 0
-343 344 0
322 343 -344 0
8 -345 0
344 -345 0
-8 -344 345 0
-8 -346 0
321 -346 0
8 -321 346 0
-345 347 0
-346 347 0
345 346 -347 0
347 -348 0
-91 -348 0
-347 91 348 0
347 -349 0
91 -349 0
-347 -91 349 0
-348 350 0
-349 350 0
348 349 -350 0
7 -351 0
350 -351 0
-7 -350 351 0
-7 -352 0
347 -352 0
7 -347 352 0
-351 353 0
-352 353 0
351 352 -353 0
353 -354 0
-96 -354 0
-353 96 354 0
353 -355 0
96 -355 0
-353 -96 355 0
-354 356 0
-355 356 0
354 355 -356 0
6 -357 0
356 -357 0
-6 -356 357 0
-6 -358 0
353 -358 0
6 -353 358 0
-357 359 0
-358 359 0
357 358 -359 0
359 -360 0
-101 -360 0
-359 101 360 0
359 -361 0
101 -361 0
-359 -101 361 0
-360 362 0
-361 362 0
360 361 -362 0
5 -363 0
362 -363 0
-5 -362 363 0
-5 -364 0
359 -364 0
5 -359 364 0
-363 365 0
-364 365 0
363 364 -365 0
4 -366 0
365 -366 0
-4 -365 366 0
108 -367 0
362 -367 0
-108 -362 367 0
-108 -368 0
359 -368 0
108 -359 368 0
-367 369 0
-368 369 0
367 368 -369 0
369 -370 0
-112 -370 0
-369 112 370 0
369 -371 0
112 -371 0
-369 -112 371 0
-370 372 0
-371 372 0
370 371 -372 0
107 -373 0
372 -373 0
-107 -372 373 0
369 -374 0
-116 -374 0
-369 116 374 0
369 -375 0
116 -375 0
-369 -116 375 0
-374 376 0
-375 376 0
374 375 -376 0
115 -377 0
376 -377 0
-115 -376 377 0
-115 -378 0
369 -378 0
115 -369 378 0
-377 379 0
-378 379 0
377 378 -379 0
-107 -380 0
379 -380 0
107 -379 380 0
-373 381 0
-380 381 0
373 380 -381 0
-4 -382 0
381 -382 0
4 -381 382 0
-366 383 0
-382 383 0
366 382 -383 0
383 -384 0
-125 -384 0
-383 125 384 0
383 -385 0
125 -385 0
-383 -125 385 0
-384 386 0
-385 386 0
384 385 -386 0
3 -387 0
386 -387 0
-3 -386 387 0
-3 -388 0
383 -388 0
3 -383 388 0
-387 389 0
-388 389 0
387 388 -389 0
389 -390 0
-130 -390 0
-389 130 390 0
389 -391 0
130 -391 0
-389 -130 391 0
-390 392 0
-391 392 0
390 391 -392 0
2 -393 0
392 -393 0
-2 -392 393 0
389 -394 0
-134 -394 0
-389 134 394 0
389 -395 0
134 -395 0
-389 -134 395 0
-394 396 0
-395 396 0
394 395 -396 0
133 -397 0
396 -397 0
-133 -396 397 0
-133 -398 0
389 -398 0
133 -389 398 0
-397 399 0
-398 399 0
397 398 -399 0
-2 -400 0
399 -400 0
2 -399 400 0
-393 401 0
-400 401 0
393 400 -401 0
401 -402 0
-141 -402 0
-401 141 402 0
401 -403 0
141 -403 0
142 -403 0
-401 -141 -142 403 0
401 -404 0
141 -404 0
-142 -404 0
-401 -141 142 404 0
-403 405 0
-404 405 0
403 404 -405 0
405 -406 0
145 -406 0
146 -406 0
-405 -145 -146 406 0
405 -407 0
145 -407 0
-146 -407 0
-405 -145 146 407 0
-406 408 0
-407 408 0
406 407 -408 0
408 -409 0
157 -409 0
158 -409 0
-408 -157 -158 409 0
408 -410 0
157 -410 0
-158 -410 0
-408 -157 158 410 0
-409 411 0
-410 411 0
409 410 -411 0
-163 412 0
-165 412 0
-167 412 0
-169 412 0
163 165 167 169 -412 0
411 -413 0
412 -413 0
-411 -412 413 0
411 -414 0
161 -414 0
-162 -414 0
-164 -414 0
-166 -414 0
-168 -414 0
-170 -414 0
181 -414 0
-411 -161 162 164 166 168 170 -181 414 0
411 -415 0
161 -415 0
-162 -415 0
-164 -415 0
-166 -415 0
-168 -415 0
-170 -415 0
-181 -415 0
-411 -161 162 164 166 168 170 181 415 0
-414 416 0
-415 416 0
414 415 -416 0
416 -417 0
184 -417 0
185 -417 0
-416 -184 -185 417 0
416 -418 0
184 -418 0
-185 -418 0
-416 -184 185 418 0
-417 419 0
-418 419 0
417 418 -419 0
419 -420 0
188 -420 0
189 -420 0
-419 -188 -189 420 0
419 -421 0
188 -421 0
-189 -421 0
-419 -188 189 421 0
411 -422 0
161 -422 0
-162 -422 0
-164 -422 0
-166 -422 0
-168 -422 0
170 -422 0
171 -422 0
-411 -161 162 164 166 168 -170 -171 422 0
411 -423 0
161 -423 0
-162 -423 0
-164 -423 0
-166 -423 0
-168 -423 0
170 -423 0
-171 -423 0
-411 -161 162 164 166 168 -170 171 423 0
-422 424 0
-423 424 0
422 423 -424 0
424 -425 0
174 -425 0
175 -425 0
-424 -174 -175 425 0
424 -426 0
174 -426 0
-175 -426 0
-424 -174 175 426 0
-425 427 0
-426 427 0
425 426 -427 0
427 -428 0
178 -428 0
179 -428 0
-427 -178 -179 428 0
427 -429 0
178 -429 0
-179 -429 0
-427 -178 179 429 0
-420 430 0
-421 430 0
-428 430 0
-429 430 0
420 421 428 429 -430 0
-195 431 0
-315 431 0
195 315 -431 0
430 -432 0
431 -432 0
-430 -431 432 0
-402 433 0
-413 433 0
-432 433 0
402 413 432 -433 0
442 -444 0
443 -444 0
-442 -443 444 0
442 -445 0
-443 -445 0
-442 443 445 0
442 446 0
-444 446 0
-445 446 0
-442 444 445 -446 0
-447 448 0
447 448 0
441 -449 0
446 -449 0
448 -449 0
-441 -446 -448 449 0
-441 -450 0
446 -450 0
441 -446 450 0
-449 451 0
-450 451 0
449 450 -451 0
-452 453 0
452 453 0
-454 455 0
454 455 0
457 -459 0
-458 -459 0
-457 458 459 0
457 460 0
-459 460 0
-457 459 -460 0
-461 462 0
461 462 0
462 -464 0
463 -464 0
-462 -463 464 0
-466 467 0
466 467 0
467 -469 0
-468 -469 0
-467 468 469 0
467 -471 0
468 -471 0
470 -471 0
-467 -468 -470 471 0
467 -474 0
468 -474 0
-470 -474 0
472 -474 0
473 -474 0
-467 -468 470 -472 -473 474 0
467 -476 0
468 -476 0
-470 -476 0
472 -476 0
-473 -476 0
-475 -476 0
-467 -468 470 -472 473 475 476 0
467 -478 0
468 -478 0
-470 -478 0
-472 -478 0
-477 -478 0
-467 -468 470 472 477 478 0
467 -480 0
468 -480 0
-470 -480 0
-472 -480 0
477 -480 0
479 -480 0
-467 -468 470 472 -477 -479 480 0
467 -482 0
468 -482 0
-470 -482 0
472 -482 0
-473 -482 0
475 -482 0
481 -482 0
-467 -468 470 -472 473 -475 -481 482 0
467 -484 0
468 -484 0
-470 -484 0
472 -484 0
-473 -484 0
475 -484 0
-481 -484 0
483 -484 0
-467 -468 470 -472 473 -475 481 -483 484 0
-485 486 0
485 486 0
467 -488 0
468 -488 0
-470 -488 0
-472 -488 0
477 -488 0
-479 -488 0
486 -488 0
487 -488 0
-467 -468 470 472 -477 479 -486 -487 488 0
467 -489 0
468 -489 0
-470 -489 0
-472 -489 0
477 -489 0
-479 -489 0
486 -489 0
-487 -489 0
-467 -468 470 472 -477 479 -486 487 489 0
490 -492 0
491 -492 0
-490 -491 492 0
490 -493 0
-491 -493 0
-490 491 493 0
490 494 0
-492 494 0
-493 494 0
-490 492 493 -494 0
467 -495 0
468 -495 0
-470 -495 0
472 -495 0
-473 -495 0
475 -495 0
-481 -495 0
-483 -495 0
494 -495 0
-467 -468 470 -472 473 -475 481 483 -494 495 0
-469 496 0
-471 496 0
-474 496 0
-476 496 0
-478 496 0
-480 496 0
-482 496 0
-484 496 0
-488 496 0
-489 496 0
-495 496 0
469 471 474 476 478 480 482 484 488 489 495 -496 0
462 -497 0
-463 -497 0
-465 -497 0
496 -497 0
-462 463 465 -496 497 0
462 -499 0
-463 -499 0
465 -499 0
-498 -499 0
-462 463 -465 498 499 0
462 -501 0
-463 -501 0
465 -501 0
498 -501 0
-500 -501 0
-462 463 -465 -498 500 501 0
462 -502 0
-463 -502 0
465 -502 0
498 -502 0
500 -502 0
-462 463 -465 -498 -500 502 0
-497 503 0
-499 503 0
-501 503 0
-502 503 0
497 499 501 502 -503 0
503 -505 0
504 -505 0
-503 -504 505 0
503 -506 0
-504 -506 0
-503 504 506 0
-464 507 0
-505 507 0
-506 507 0
464 505 506 -507 0
-508 509 0
508 509 0
456 -511 0
460 -511 0
507 -511 0
509 -511 0
510 -511 0
-456 -460 -507 -509 -510 511 0
-512 513 0
512 513 0
456 -514 0
460 -514 0
507 -514 0
509 -514 0
-510 -514 0
513 -514 0
-456 -460 -507 -509 510 -513 514 0
-511 515 0
-514 515 0
511 514 -515 0
515 -517 0
516 -517 0
-515 -516 517 0
515 -518 0
-516 -518 0
-515 516 518 0
456 519 0
-517 519 0
-518 519 0
-456 517 518 -519 0
440 -520 0
451 -520 0
453 -520 0
455 -520 0
519 -520 0
-440 -451 -453 -455 -519 520 0
-440 -521 0
451 -521 0
453 -521 0
455 -521 0
440 -451 -453 -455 521 0
-520 522 0
-521 522 0
520 521 -522 0
523 524 0
-523 524 0
439 -525 0
522 -525 0
524 -525 0
-439 -522 -524 525 0
-439 -526 0
522 -526 0
439 -522 526 0
-525 527 0
-526 527 0
525 526 -527 0
528 529 0
-528 529 0
438 -530 0
527 -530 0
529 -530 0
-438 -527 -529 530 0
-438 -531 0
527 -531 0
438 -527 531 0
-530 532 0
-531 532 0
530 531 -532 0
533 534 0
-533 534 0
437 -535 0
532 -535 0
534 -535 0
-437 -532 -534 535 0
-437 -536 0
532 -536 0
437 -532 536 0
-535 537 0
-536 537 0
535 536 -537 0
436 -538 0
537 -538 0
-436 -537 538 0
540 -541 0
532 -541 0
534 -541 0
-540 -532 -534 541 0
-540 -542 0
532 -542 0
540 -532 542 0
-541 543 0
-542 543 0
541 542 -543 0
544 545 0
-544 545 0
539 -546 0
543 -546 0
545 -546 0
-539 -543 -545 546 0
548 549 0
-548 549 0
547 -550 0
543 -550 0
549 -550 0
-547 -543 -549 550 0
-547 -551 0
543 -551 0
547 -543 551 0
-550 552 0
-551 552 0
550 551 -552 0
-539 -553 0
552 -553 0
539 -552 553 0
-546 554 0
-553 554 0
546 553 -554 0
-436 -555 0
554 -555 0
436 -554 555 0
-538 556 0
-555 556 0
538 555 -556 0
557 558 0
-557 558 0
435 -559 0
556 -559 0
558 -559 0
-435 -556 -558 559 0
-435 -560 0
556 -560 0
435 -556 560 0
-559 561 0
-560 561 0
559 560 -561 0
562 563 0
-562 563 0
434 -564 0
561 -564 0
563 -564 0
-434 -561 -563 564 0
566 567 0
-566 567 0
565 -568 0
561 -568 0
567 -568 0
-565 -561 -567 568 0
-565 -569 0
561 -569 0
565 -561 569 0
-568 570 0
-569 570 0
568 569 -570 0
-434 -571 0
570 -571 0
434 -570 571 0
-564 572 0
-571 572 0
564 571 -572 0
573 -575 0
574 -575 0
-573 -574 575 0
573 -576 0
-574 -576 0
-573 574 576 0
-575 577 0
-576 577 0
575 576 -577 0
577 -579 0
578 -579 0
-577 -578 579 0
577 -580 0
-578 -580 0
-577 578 580 0
-579 581 0
-580 581 0
579 580 -581 0
581 -584 0
-582 -584 0
583 -584 0
-581 582 -583 584 0
581 -585 0
-582 -585 0
-583 -585 0
-581 582 583 585 0
581 -587 0
582 -587 0
586 -587 0
-581 -582 -586 587 0
581 -588 0
582 -588 0
-586 -588 0
-581 -582 586 588 0
-584 589 0
-585 589 0
-587 589 0
-588 589 0
584 585 587 588 -589 0
589 -591 0
590 -591 0
-589 -590 591 0
589 -592 0
-590 -592 0
-589 590 592 0
-591 593 0
-592 593 0
591 592 -593 0
593 -595 0
594 -595 0
-593 -594 595 0
593 -597 0
-594 -597 0
596 -597 0
-593 594 -596 597 0
593 -599 0
-594 -599 0
-596 -599 0
598 -599 0
-593 594 596 -598 599 0
593 -601 0
-594 -601 0
-596 -601 0
-598 -601 0
600 -601 0
-593 594 596 598 -600 601 0
593 -604 0
-594 -604 0
-596 -604 0
-598 -604 0
-600 -604 0
602 -604 0
603 -604 0
-593 594 596 598 600 -602 -603 604 0
593 -605 0
-594 -605 0
-596 -605 0
-598 -605 0
-600 -605 0
602 -605 0
-603 -605 0
-593 594 596 598 600 -602 603 605 0
-604 606 0
-605 606 0
604 605 -606 0
606 -608 0
607 -608 0
-606 -607 608 0
606 -609 0
-607 -609 0
-606 607 609 0
-608 610 0
-609 610 0
608 609 -610 0
610 -612 0
611 -612 0
-610 -611 612 0
593 -614 0
-594 -614 0
-596 -614 0
-598 -614 0
-600 -614 0
-602 -614 0
613 -614 0
-593 594 596 598 600 602 -613 614 0
593 -615 0
-594 -615 0
-596 -615 0
-598 -615 0
-600 -615 0
-602 -615 0
-613 -615 0
-593 594 596 598 600 602 613 615 0
-614 616 0
-615 616 0
614 615 -616 0
616 -618 0
617 -618 0
-616 -617 618 0
616 -619 0
-617 -619 0
-616 617 619 0
-618 620 0
-619 620 0
618 619 -620 0
620 -622 0
621 -622 0
-620 -621 622 0
610 -623 0
-611 -623 0
-610 611 623 0
620 -624 0
-621 -624 0
-620 621 624 0
-612 625 0
-622 625 0
-623 625 0
-624 625 0
612 622 623 624 -625 0
625 -627 0
-626 -627 0
-625 626 627 0
625 -629 0
626 -629 0
628 -629 0
-625 -626 -628 629 0
625 -630 0
626 -630 0
-628 -630 0
-625 -626 628 630 0
573 631 0
-595 631 0
-597 631 0
-599 631 0
-601 631 0
-627 631 0
-629 631 0
-630 631 0
-573 595 597 599 601 627 629 630 -631 0
572 -632 0
631 -632 0
-572 -631 632 0
-447 633 0
447 633 0
441 -634 0
633 -634 0
-441 -633 634 0
-634 635 0
441 635 0
634 -441 -635 0
635 -636 0
-456 -636 0
-635 456 636 0
635 -637 0
462 -637 0
463 -637 0
-635 -462 -463 637 0
635 -638 0
462 -638 0
-463 -638 0
465 -638 0
498 -638 0
-500 -638 0
-635 -462 463 -465 -498 500 638 0
635 -639 0
462 -639 0
-463 -639 0
465 -639 0
498 -639 0
500 -639 0
-635 -462 463 -465 -498 -500 639 0
635 -640 0
462 -640 0
-463 -640 0
465 -640 0
-498 -640 0
-635 -462 463 -465 498 640 0
635 -641 0
466 -641 0
-635 -466 641 0
635 -642 0
-466 -642 0
-635 466 642 0
-641 643 0
-642 643 0
641 642 -643 0
-469 644 0
-471 644 0
-474 644 0
-476 644 0
-478 644 0
-480 644 0
-482 644 0
-484 644 0
469 471 474 476 478 480 482 484 -644 0
643 -645 0
644 -645 0
-643 -644 645 0
643 -646 0
467 -646 0
468 -646 0
-470 -646 0
472 -646 0
-473 -646 0
475 -646 0
-481 -646 0
-483 -646 0
494 -646 0
-643 -467 -468 470 -472 473 -475 481 483 -494 646 0
-488 647 0
-489 647 0
488 489 -647 0
643 -648 0
647 -648 0
-643 -647 648 0
-645 649 0
-646 649 0
-648 649 0
645 646 648 -649 0
649 -650 0
462 -650 0
-463 -650 0
-465 -650 0
496 -650 0
-649 -462 463 465 -496 650 0
-638 651 0
-639 651 0
-640 651 0
-650 651 0
638 639 640 650 -651 0
651 -652 0
503 -652 0
504 -652 0
-651 -503 -504 652 0
651 -653 0
503 -653 0
-504 -653 0
-651 -503 504 653 0
-637 654 0
-652 654 0
-653 654 0
637 652 653 -654 0
654 -655 0
456 -655 0
460 -655 0
507 -655 0
509 -655 0
510 -655 0
-654 -456 -460 -507 -509 -510 655 0
654 -656 0
456 -656 0
460 -656 0
507 -656 0
509 -656 0
-510 -656 0
513 -656 0
-654 -456 -460 -507 -509 510 -513 656 0
-655 657 0
-656 657 0
655 656 -657 0
-517 658 0
-518 658 0
517 518 -658 0
657 -659 0
658 -659 0
-657 -658 659 0
-636 660 0
-659 660 0
636 659 -660 0
440 -661 0
660 -661 0
-440 -660 661 0
-440 -662 0
635 -662 0
440 -635 662 0
-661 663 0
-662 663 0
661 662 -663 0
663 -664 0
-523 -664 0
-663 523 664 0
663 -665 0
523 -665 0
-663 -523 665 0
-664 666 0
-665 666 0
664 665 -666 0
439 -667 0
666 -667 0
-439 -666 667 0
-439 -668 0
663 -668 0
439 -663 668 0
-667 669 0
-668 669 0
667 668 -669 0
669 -670 0
-528 -670 0
-669 528 670 0
669 -671 0
528 -671 0
-669 -528 671 0
-670 672 0
-671 672 0
670 671 -672 0
438 -673 0
672 -673 0
-438 -672 673 0
-438 -674 0
669 -674 0
438 -669 674 0
-673 675 0
-674 675 0
673 674 -675 0
675 -676 0
-533 -676 0
-675 533 676 0
675 -677 0
533 -677 0
-675 -533 677 0
-676 678 0
-677 678 0
676 677 -678 0
437 -679 0
678 -679 0
-437 -678 679 0
-437 -680 0
675 -680 0
437 -675 680 0
-679 681 0
-680 681 0
679 680 -681 0
436 -682 0
681 -682 0
-436 -681 682 0
540 -683 0
678 -683 0
-540 -678 683 0
-540 -684 0
675 -684 0
540 -675 684 0
-683 685 0
-684 685 0
683 684 -685 0
685 -686 0
-544 -686 0
-685 544 686 0
685 -687 0
544 -687 0
-685 -544 687 0
-686 688 0
-687 688 0
686 687 -688 0
539 -689 0
688 -689 0
-539 -688 689 0
685 -690 0
-548 -690 0
-685 548 690 0
685 -691 0
548 -691 0
-685 -548 691 0
-690 692 0
-691 692 0
690 691 -692 0
547 -693 0
692 -693 0
-547 -692 693 0
-547 -694 0
685 -694 0
547 -685 694 0
-693 695 0
-694 695 0
693 694 -695 0
-539 -696 0
695 -696 0
539 -695 696 0
-689 697 0
-696 697 0
689 696 -697 0
-436 -698 0
697 -698 0
436 -697 698 0
-682 699 0
-698 699 0
682 698 -699 0
699 -700 0
-557 -700 0
-699 557 700 0
699 -701 0
557 -701 0
-699 -557 701 0
-700 702 0
-701 702 0
700 701 -702 0
435 -703 0
702 -703 0
-435 -702 703 0
-435 -704 0
699 -704 0
435 -699 704 0
-703 705 0
-704 705 0
703 704 -705 0
705 -706 0
-562 -706 0
-705 562 706 0
705 -707 0
562 -707 0
-705 -562 707 0
-706 708 0
-707 708 0
706 707 -708 0
434 -709 0
708 -709 0
-434 -708 709 0
705 -710 0
-566 -710 0
-705 566 710 0
705 -711 0
566 -711 0
-705 -566 711 0
-710 712 0
-711 712 0
710 711 -712 0
565 -713 0
712 -713 0
-565 -712 713 0
-565 -714 0
705 -714 0
565 -705 714 0
-713 715 0
-714 715 0
713 714 -715 0
-434 -716 0
715 -716 0
434 -715 716 0
-709 717 0
-716 717 0
709 716 -717 0
717 -718 0
-573 -718 0
-717 573 718 0
717 -719 0
573 -719 0
574 -719 0
-717 -573 -574 719 0
717 -720 0
573 -720 0
-574 -720 0
-717 -573 574 720 0
-719 721 0
-720 721 0
719 720 -721 0
721 -722 0
577 -722 0
578 -722 0
-721 -577 -578 722 0
721 -723 0
577 -723 0
-578 -723 0
-721 -577 578 723 0
-722 724 0
-723 724 0
722 723 -724 0
724 -725 0
589 -725 0
590 -725 0
-724 -589 -590 725 0
724 -726 0
589 -726 0
-590 -726 0
-724 -589 590 726 0
-725 727 0
-726 727 0
725 726 -727 0
-595 728 0
-597 728 0
-599 728 0
-601 728 0
595 597 599 601 -728 0
727 -729 0
728 -729 0
-727 -728 729 0
727 -730 0
593 -730 0
-594 -730 0
-596 -730 0
-598 -730 0
-600 -730 0
-602 -730 0
613 -730 0
-727 -593 594 596 598 600 602 -613 730 0
727 -731 0
593 -731 0
-594 -731 0
-596 -731 0
-598 -731 0
-600 -731 0
-602 -731 0
-613 -731 0
-727 -593 594 596 598 600 602 613 731 0
-730 732 0
-731 732 0
730 731 -732 0
732 -733 0
616 -733 0
617 -733 0
-732 -616 -617 733 0
732 -734 0
616 -734 0
-617 -734 0
-732 -616 617 734 0
-733 735 0
-734 735 0
733 734 -735 0
735 -736 0
620 -736 0
621 -736 0
-735 -620 -621 736 0
735 -737 0
620 -737 0
-621 -737 0
-735 -620 621 737 0
727 -738 0
593 -738 0
-594 -738 0
-596 -738 0
-598 -738 0
-600 -738 0
602 -738 0
603 -738 0
-727 -593 594 596 598 600 -602 -603 738 0
727 -739 0
593 -739 0
-594 -739 0
-596 -739 0
-598 -739 0
-600 -739 0
602 -739 0
-603 -739 0
-727 -593 594 596 598 600 -602 603 739 0
-738 740 0
-739 740 0
738 739 -740 0
740 -741 0
606 -741 0
607 -741 0
-740 -606 -607 741 0
740 -742 0
606 -742 0
-607 -742 0
-740 -606 607 742 0
-741 743 0
-742 743 0
741 742 -743 0
743 -744 0
610 -744 0
611 -744 0
-743 -610 -611 744 0
743 -745 0
610 -745 0
-611 -745 0
-743 -610 611 745 0
-736 746 0
-737 746 0
-744 746 0
-745 746 0
736 737 744 745 -746 0
-629 747 0
-630 747 0
629 630 -747 0
-627 748 0
-747 748 0
627 747 -748 0
746 -749 0
748 -749 0
-746 -748 749 0
-718 750 0
-729 750 0
-749 750 0
718 729 749 -750 0
-447 751 0
447 751 0
441 -752 0
751 -752 0
-441 -751 752 0
-752 753 0
441 753 0
752 -441 -753 0
753 -754 0
-456 -754 0
-753 456 754 0
753 -755 0
462 -755 0
463 -755 0
-753 -462 -463 755 0
753 -756 0
462 -756 0
-463 -756 0
465 -756 0
498 -756 0
-500 -756 0
-753 -462 463 -465 -498 500 756 0
753 -757 0
462 -757 0
-463 -757 0
465 -757 0
498 -757 0
500 -757 0
-753 -462 463 -465 -498 -500 757 0
753 -758 0
462 -758 0
-463 -758 0
465 -758 0
-498 -758 0
-753 -462 463 -465 498 758 0
753 -759 0
466 -759 0
-753 -466 759 0
753 -760 0
-466 -760 0
-753 466 760 0
-759 761 0
-760 761 0
759 760 -761 0
-469 762 0
-471 762 0
-474 762 0
-476 762 0
-478 762 0
-480 762 0
-482 762 0
-484 762 0
469 471 474 476 478 480 482 484 -762 0
761 -763 0
762 -763 0
-761 -762 763 0
761 -764 0
467 -764 0
468 -764 0
-470 -764 0
472 -764 0
-473 -764 0
475 -764 0
-481 -764 0
-483 -764 0
494 -764 0
-761 -467 -468 470 -472 473 -475 481 483 -494 764 0
761 -765 0
647 -765 0
-761 -647 765 0
-763 766 0
-764 766 0
-765 766 0
763 764 765 -766 0
766 -767 0
462 -767 0
-463 -767 0
-465 -767 0
496 -767 0
-766 -462 463 465 -496 767 0
-756 768 0
-757 768 0
-758 768 0
-767 768 0
756 757 758 767 -768 0
768 -769 0
503 -769 0
504 -769 0
-768 -503 -504 769 0
768 -770 0
503 -770 0
-504 -770 0
-768 -503 504 770 0
-755 771 0
-769 771 0
-770 771 0
755 769 770 -771 0
771 -772 0
456 -772 0
460 -772 0
507 -772 0
509 -772 0
510 -772 0
-771 -456 -460 -507 -509 -510 772 0
771 -773 0
456 -773 0
460 -773 0
507 -773 0
509 -773 0
-510 -773 0
513 -773 0
-771 -456 -460 -507 -509 510 -513 773 0
-772 774 0
-773 774 0
772 773 -774 0
774 -775 0
658 -775 0
-774 -658 775 0
-754 776 0
-775 776 0
754 775 -776 0
440 -777 0
776 -777 0
-440 -776 777 0
-440 -778 0
753 -778 0
440 -753 778 0
-777 779 0
-778 779 0
777 778 -779 0
779 -780 0
-523 -780 0
-779 523 780 0
779 -781 0
523 -781 0
-779 -523 781 0
-780 782 0
-781 782 0
780 781 -782 0
439 -783 0
782 -783 0
-439 -782 783 0
-439 -784 0
779 -784 0
439 -779 784 0
-783 785 0
-784 785 0
783 784 -785 0
785 -786 0
-528 -786 0
-785 528 786 0
785 -787 0
528 -787 0
-785 -528 787 0
-786 788 0
-787 788 0
786 787 -788 0
438 -789 0
788 -789 0
-438 -788 789 0
-438 -790 0
785 -790 0
438 -785 790 0
-789 791 0
-790 791 0
789 790 -791 0
791 -792 0
-533 -792 0
-791 533 792 0
791 -793 0
533 -793 0
-791 -533 793 0
-792 794 0
-793 794 0
792 793 -794 0
437 -795 0
794 -795 0
-437 -794 795 0
-437 -796 0
791 -796 0
437 -791 796 0
-795 797 0
-796 797 0
795 796 -797 0
436 -798 0
797 -798 0
-436 -797 798 0
540 -799 0
794 -799 0
-540 -794 799 0
-540 -800 0
791 -800 0
540 -791 800 0
-799 801 0
-800 801 0
799 800 -801 0
801 -802 0
-544 -802 0
-801 544 802 0
801 -803 0
544 -803 0
-801 -544 803 0
-802 804 0
-803 804 0
802 803 -804 0
539 -805 0
804 -805 0
-539 -804 805 0
801 -806 0
-548 -806 0
-801 548 806 0
801 -807 0
548 -807 0
-801 -548 807 0
-806 808 0
-807 808 0
806 807 -808 0
547 -809 0
808 -809 0
-547 -808 809 0
-547 -810 0
801 -810 0
547 -801 810 0
-809 811 0
-810 811 0
809 810 -811 0
-539 -812 0
811 -812 0
539 -811 812 0
-805 813 0
-812 813 0
805 812 -813 0
-436 -814 0
813 -814 0
436 -813 814 0
-798 815 0
-814 815 0
798 814 -815 0
815 -816 0
-557 -816 0
-815 557 816 0
815 -817 0
557 -817 0
-815 -557 817 0
-816 818 0
-817 818 0
816 817 -818 0
435 -819 0
818 -819 0
-435 -818 819 0
-435 -820 0
815 -820 0
435 -815 820 0
-819 821 0
-820 821 0
819 820 -821 0
821 -822 0
-562 -822 0
-821 562 822 0
821 -823 0
562 -823 0
-821 -562 823 0
-822 824 0
-823 824 0
822 823 -824 0
434 -825 0
824 -825 0
-434 -824 825 0
821 -826 0
-566 -826 0
-821 566 826 0
821 -827 0
566 -827 0
-821 -566 827 0
-826 828 0
-827 828 0
826 827 -828 0
565 -829 0
828 -829 0
-565 -828 829 0
-565 -830 0
821 -830 0
565 -821 830 0
-829 831 0
-830 831 0
829 830 -831 0
-434 -832 0
831 -832 0
434 -831 832 0
-825 833 0
-832 833 0
825 832 -833 0
833 -834 0
-573 -834 0
-833 573 834 0
833 -835 0
573 -835 0
574 -835 0
-833 -573 -574 835 0
833 -836 0
573 -836 0
-574 -836 0
-833 -573 574 836 0
-835 837 0
-836 837 0
835 836 -837 0
837 -838 0
577 -838 0
578 -838 0
-837 -577 -578 838 0
837 -839 0
577 -839 0
-578 -839 0
-837 -577 578 839 0
-838 840 0
-839 840 0
838 839 -840 0
840 -841 0
589 -841 0
590 -841 0
-840 -589 -590 841 0
840 -842 0
589 -842 0
-590 -842 0
-840 -589 590 842 0
-841 843 0
-842 843 0
841 842 -843 0
-595 844 0
-597 844 0
-599 844 0
-601 844 0
595 597 599 601 -844 0
843 -845 0
844 -845 0
-843 -844 845 0
843 -846 0
593 -846 0
-594 -846 0
-596 -846 0
-598 -846 0
-600 -846 0
-602 -846 0
613 -846 0
-843 -593 594 596 598 600 602 -613 846 0
843 -847 0
593 -847 0
-594 -847 0
-596 -847 0
-598 -847 0
-600 -847 0
-602 -847 0
-613 -847 0
-843 -593 594 596 598 600 602 613 847 0
-846 848 0
-847 848 0
846 847 -848 0
848 -849 0
616 -849 0
617 -849 0
-848 -616 -617 849 0
848 -850 0
616 -850 0
-617 -850 0
-848 -616 617 850 0
-849 851 0
-850 851 0
849 850 -851 0
851 -852 0
620 -852 0
621 -852 0
-851 -620 -621 852 0
851 -853 0
620 -853 0
-621 -853 0
-851 -620 621 853 0
843 -854 0
593 -854 0
-594 -854 0
-596 -854 0
-598 -854 0
-600 -854 0
602 -854 0
603 -854 0
-843 -593 594 596 598 600 -602 -603 854 0
843 -855 0
593 -855 0
-594 -855 0
-596 -855 0
-598 -855 0
-600 -855 0
602 -855 0
-603 -855 0
-843 -593 594 596 598 600 -602 603 855 0
-854 856 0
-855 856 0
854 855 -856 0
856 -857 0
606 -857 0
607 -857 0
-856 -606 -607 857 0
856 -858 0
606 -858 0
-607 -858 0
-856 -606 607 858 0
-857 859 0
-858 859 0
857 858 -859 0
859 -860 0
610 -860 0
611 -860 0
-859 -610 -611 860 0
859 -861 0
610 -861 0
-611 -861 0
-859 -610 611 861 0
-852 862 0
-853 862 0
-860 862 0
-861 862 0
852 853 860 861 -862 0
-627 863 0
-747 863 0
627 747 -863 0
862 -864 0
863 -864 0
-862 -863 864 0
-834 865 0
-845 865 0
-864 865 0
834 845 864 -865 0
-750 -318 -866 0
750 318 -866 0
-750 318 866 0
750 -318 866 0
-865 -433 -867 0
865 433 -867 0
-865 433 867 0
865 -433 867 0
-866 -868 0
-867 -868 0
632 -868 0
866 867 -632 868 0
-200 868 0
